outputs/case_328.model.txt
compliance_communication_system_established = True
regulations_updated_timely = True
new_business_compliance_opinion_signed = True
compliance_evaluation_and_supervision_done = True
compliance_training_done = True
compliance_supervision_done = True
foreign_branch_compliance_supervised = True
compliance_self_assessment_done_semesterly = True
self_assessment_documents_retained_5_years = True
internal_control_system_executed = True
internal_control_system_established = True
internal_handling_system_executed = True
internal_operation_system_executed = True
internal_handling_system_established = True
internal_operation_system_established = True
internal_operation_executed = True
compliance_communication_established = True
internal_handling_established = True
foreign_branch_compliance_supervision = True
compliance_supervision_implementation = True
internal_operation_ok = True
internal_handling_ok = True
compliance_self_assessment_document_retention = True
compliance_self_assessment_frequency = 1
compliance_training_provided = True
compliance_evaluation_and_supervision = True
compliance_new_business_opinion_signed = True
compliance_regulations_updated = True
internal_control_executed = True
penalty = False
internal_control_established = True
internal_handling_executed = True
internal_operation_established = True
internal_control_ok = True